c Random generated cnf formula, satisfiable: true
p cnf 10 50
-1 2 4 0
9 8 4 0
8 6 4 0
-2 1 -9 0
-3 6 -8 0
-9 -2 -5 0
2 -9 6 0
9 -3 8 0
10 2 -6 0
8 2 -6 0
-1 3 2 0
-8 10 2 0
-9 6 3 0
3 4 -7 0
-8 10 -3 0
2 5 10 0
9 7 -5 0
-6 -10 -1 0
-7 -9 4 0
8 -1 -6 0
7 -1 -9 0
6 -3 -7 0
-9 -5 1 0
-9 10 1 0
9 -1 8 0
7 3 -5 0
9 -6 1 0
2 7 -9 0
7 5 10 0
-9 5 1 0
1 -10 7 0
4 9 10 0
4 -7 9 0
-10 -9 7 0
7 -2 5 0
9 -6 8 0
5 2 1 0
4 -3 7 0
-2 4 8 0
-6 -5 9 0
-8 -5 7 0
-8 -4 -6 0
-5 -1 -4 0
-1 10 7 0
-2 -10 1 0
1 -6 5 0
1 -10 2 0
9 -3 -8 0
2 -7 5 0
1 -2 8 0
